param NumStages := 2 ;

param NumResources := 2 ;

param FixedCost :=
1    1    3186.8119048
1    2    1369.1958858
;

param MarginalCost :=
1    1    262.32319556
1    2    997.699584892
;

param Demand :=
1    31.7493075165
;

